results_rootrelaxation/bin012_090_022.srr.sol
solution status: optimal solution found
objective value:                     33.1666666666667
_var709_                            0.166666666666667 	(obj:3)
_var713_                            0.333333333333333 	(obj:3)
_var716_                                          0.5 	(obj:4)
_var733_                            0.500000000000001 	(obj:2)
_var797_                            0.833333333333333 	(obj:2)
_var800_                            0.500000000000001 	(obj:1)
_var815_                            0.166666666666665 	(obj:4)
_var835_                            0.666666666666666 	(obj:4)
_var838_                            0.166666666666664 	(obj:4)
_var839_                            0.166666666666669 	(obj:2)
_var849_                            0.499999999999999 	(obj:4)
_var855_                            0.166666666666667 	(obj:1)
_var857_                            0.166666666666667 	(obj:4)
_var864_                            0.333333333333334 	(obj:3)
_var865_                            0.333333333333334 	(obj:2)
_var868_                            0.166666666666667 	(obj:4)
_var873_                            0.166666666666667 	(obj:3)
_var879_                            0.333333333333334 	(obj:4)
_var890_                            0.499999999999998 	(obj:3)
_var894_                             0.16666666666667 	(obj:3)
_var906_                            0.500000000000001 	(obj:3)
_var909_                            0.499999999999999 	(obj:3)
_var913_                            0.333333333333336 	(obj:4)
_var915_                            0.333333333333333 	(obj:4)
_var924_                            0.333333333333332 	(obj:2)
_var927_                            0.166666666666667 	(obj:3)
_var928_                             0.33333333333333 	(obj:1)
_var934_                            0.166666666666668 	(obj:5)
_var942_                            0.333333333333331 	(obj:3)
_var944_                            0.166666666666666 	(obj:2)
_var954_                            0.333333333333333 	(obj:4)
_var957_                            0.166666666666666 	(obj:4)
_var958_                            0.166666666666669 	(obj:3)
_var959_                             0.16666666666667 	(obj:4)
_var962_                            0.166666666666667 	(obj:4)
